(set-logic ALL)
(declare-const k Int)
(declare-fun s () (_ BitVec k))
(declare-fun t () (_ BitVec k))
(assert (distinct (bvlshr (_ bv1 k) (bvurem (_ bv1 k) s)) (bvurem s (bvurem (_ bv1 k) s))))
(check-sat)
